120 150

58
47
54
54
53
42
57
52
40
49
45
49
54
54
59
58
58
42
47
45
54
55
49
41
47
54
47
60
59
48
43
54
44
52
56
49
56
54
45
59
46
54
51
49
50
51
54
55
57
51
51
46
53
49
48
53
52
41
52
46
59
49
54
50
49
42
54
47
45
47
56
58
40
49
47
57
49
58
42
52
53
57
40
54
49
46
53
45
47
56
45
56
50
55
40
45
44
54
49
43
52
58
46
41
53
48
43
52
46
44
54
57
44
49
49
44
52
44
54
44